NAME          ClpDefau  FREE
ROWS
 N  OBJROW
 L  ZMUNI1_PCT
 L  ZMUNI2_PCT
 L  ZMUNI3_PCT
 L  ZMUNI4_PCT
 L  ZMUNI5_PCT
 L  ZMUNI6_PCT
 L  ZMUNI7_PCT
 L  ZMUNI8_PCT
 L  ZMUNI9_PCT
COLUMNS
    QMUNI1 OBJROW 1.          
    QMUNI1 ZMUNI1_PCT 30964.8514  
    QMUNI1 ZMUNI2_PCT 1914.4058   
    QMUNI1 ZMUNI3_PCT 4390.3351   
    QMUNI1 ZMUNI4_PCT 3180.6946   
    QMUNI1 ZMUNI5_PCT 446.3196    
    QMUNI1 ZMUNI6_PCT 604.4388    
    QMUNI1 ZMUNI7_PCT 2430.3436   
    QMUNI1 ZMUNI8_PCT 1666.6412   
    QMUNI1 ZMUNI9_PCT 701.7135    
    QMUNI2 OBJROW 1.          
    QMUNI2 ZMUNI1_PCT 1969.1467   
    QMUNI2 ZMUNI2_PCT 36449.4324  
    QMUNI2 ZMUNI3_PCT 2761.2686   
    QMUNI2 ZMUNI4_PCT 2861.7859   
    QMUNI2 ZMUNI5_PCT 572.2046    
    QMUNI2 ZMUNI6_PCT 560.379     
    QMUNI2 ZMUNI7_PCT 1668.1671   
    QMUNI2 ZMUNI8_PCT 1691.4367   
    QMUNI2 ZMUNI9_PCT 1669.693    
    QMUNI3 OBJROW 1.          
    QMUNI3 ZMUNI1_PCT 4378.891    
    QMUNI3 ZMUNI2_PCT 2758.4076   
    QMUNI3 ZMUNI3_PCT 32018.8522  
    QMUNI3 ZMUNI4_PCT 5165.6723   
    QMUNI3 ZMUNI5_PCT 343.5135    
    QMUNI3 ZMUNI6_PCT 487.1368    
    QMUNI3 ZMUNI7_PCT 2300.2625   
    QMUNI3 ZMUNI8_PCT 1863.0981   
    QMUNI3 ZMUNI9_PCT 1005.5542   
    QMUNI4 OBJROW 1.          
    QMUNI4 ZMUNI1_PCT 3529.7394   
    QMUNI4 ZMUNI2_PCT 3204.7272   
    QMUNI4 ZMUNI3_PCT 5696.2967   
    QMUNI4 ZMUNI4_PCT 111650.4669 
    QMUNI4 ZMUNI5_PCT 471.1151    
    QMUNI4 ZMUNI6_PCT 545.311     
    QMUNI4 ZMUNI7_PCT 2084.3506   
    QMUNI4 ZMUNI8_PCT 1779.1748   
    QMUNI4 ZMUNI9_PCT 1140.9759   
    QMUNI5 OBJROW 1.          
    QMUNI5 ZMUNI1_PCT 615.6921    
    QMUNI5 ZMUNI2_PCT 498.7717    
    QMUNI5 ZMUNI3_PCT 556.9458    
    QMUNI5 ZMUNI4_PCT 465.393     
    QMUNI5 ZMUNI5_PCT 38875.0076  
    QMUNI5 ZMUNI6_PCT 3476.3336   
    QMUNI5 ZMUNI7_PCT 1270.2942   
    QMUNI5 ZMUNI8_PCT 973.5107    
    QMUNI5 ZMUNI9_PCT 1128.006    
    QMUNI6 OBJROW 1.          
    QMUNI6 ZMUNI1_PCT 569.1528    
    QMUNI6 ZMUNI2_PCT 286.1023    
    QMUNI6 ZMUNI3_PCT 466.156     
    QMUNI6 ZMUNI4_PCT 383.5678    
    QMUNI6 ZMUNI5_PCT 3573.6084   
    QMUNI6 ZMUNI6_PCT 35625.267   
    QMUNI6 ZMUNI7_PCT 898.7427    
    QMUNI6 ZMUNI8_PCT 433.3496    
    QMUNI6 ZMUNI9_PCT 240.7074    
    QMUNI7 OBJROW 1.          
    QMUNI7 ZMUNI1_PCT 1844.5969   
    QMUNI7 ZMUNI2_PCT 1190.7578   
    QMUNI7 ZMUNI3_PCT 1623.1537   
    QMUNI7 ZMUNI4_PCT 1259.8037   
    QMUNI7 ZMUNI5_PCT 914.7644    
    QMUNI7 ZMUNI6_PCT 1074.6002   
    QMUNI7 ZMUNI7_PCT 39784.6222  
    QMUNI7 ZMUNI8_PCT 3233.3374   
    QMUNI7 ZMUNI9_PCT 1479.9118   
    QMUNI8 OBJROW 1.          
    QMUNI8 ZMUNI1_PCT 1525.8789   
    QMUNI8 ZMUNI2_PCT 1323.8907   
    QMUNI8 ZMUNI3_PCT 1518.631    
    QMUNI8 ZMUNI4_PCT 1211.3571   
    QMUNI8 ZMUNI5_PCT 507.5455    
    QMUNI8 ZMUNI6_PCT 624.8474    
    QMUNI8 ZMUNI7_PCT 3683.8532   
    QMUNI8 ZMUNI8_PCT 32944.4885  
    QMUNI8 ZMUNI9_PCT 2083.3969   
    QMUNI9 OBJROW 1.          
    QMUNI9 ZMUNI1_PCT 554.0848    
    QMUNI9 ZMUNI2_PCT 843.0481    
    QMUNI9 ZMUNI3_PCT 638.3896    
    QMUNI9 ZMUNI4_PCT 547.7905    
    QMUNI9 ZMUNI5_PCT 197.792     
    QMUNI9 ZMUNI6_PCT 214.0045    
    QMUNI9 ZMUNI7_PCT 901.7944    
    QMUNI9 ZMUNI8_PCT 1304.6264   
    QMUNI9 ZMUNI9_PCT 31525.6119  
RHS
    RHS ZMUNI1_PCT 0.9856414505
    RHS ZMUNI2_PCT  -0.42087267
    RHS ZMUNI3_PCT -0.00778895 
    RHS ZMUNI4_PCT  -3.55784942
    RHS ZMUNI5_PCT  -0.89752453
    RHS ZMUNI6_PCT 0.1286813739
    RHS ZMUNI7_PCT 0.4760687676
    RHS ZMUNI8_PCT 0.5752436032
    RHS ZMUNI9_PCT 1.9029498917
BOUNDS
 LO BOUND QMUNI1 -0.00053431 
 UP BOUND QMUNI1      1.1e+10
 LO BOUND QMUNI2 -0.000413742
 UP BOUND QMUNI2      1.1e+10
 LO BOUND QMUNI3 -0.000471821
 UP BOUND QMUNI3      1.1e+10
 LO BOUND QMUNI4 -0.000197822
 UP BOUND QMUNI4      1.1e+10
 LO BOUND QMUNI5 -0.000299007
 UP BOUND QMUNI5      1.1e+10
 LO BOUND QMUNI6 -0.000404111
 UP BOUND QMUNI6      1.1e+10
 LO BOUND QMUNI7  -4.38339e-5
 UP BOUND QMUNI7      1.1e+10
 LO BOUND QMUNI8 -0.000200734
 UP BOUND QMUNI8      1.1e+10
 LO BOUND QMUNI9 -0.00017876 
 UP BOUND QMUNI9      1.1e+10
ENDATA
